This is Ipopt version 3.14.16, running with linear solver MUMPS 5.7.3.

Number of nonzeros in equality constraint Jacobian...:        0
Number of nonzeros in inequality constraint Jacobian.:        3
Number of nonzeros in Lagrangian Hessian.............:        0

Total number of variables............................:        3
                     variables with only lower bounds:        0
                variables with lower and upper bounds:        3
                     variables with only upper bounds:        0
Total number of equality constraints.................:        0
Total number of inequality constraints...............:        1
        inequality constraints with only lower bounds:        0
   inequality constraints with lower and upper bounds:        1
        inequality constraints with only upper bounds:        0

iter    objective    inf_pr   inf_du lg(mu)  ||d||  lg(rg) alpha_du alpha_pr  ls
   0 -2.4250669e+01 0.00e+00 1.13e-01   0.0 0.00e+00    -  0.00e+00 0.00e+00   0
   1 -2.4248493e+01 0.00e+00 1.36e-01  -0.7 2.10e-01    -  9.91e-01 1.00e+00f  1
   2 -2.4738376e+01 0.00e+00 1.95e-01  -0.4 3.83e+00    -  1.00e+00 1.00e+00f  1
   3 -2.6724237e+01 0.00e+00 1.51e-01  -6.4 2.87e+01    -  3.87e-01 5.00e-01f  2
   4 -2.7141405e+01 0.00e+00 1.58e-01  -1.2 5.25e+02    -  2.81e-02 4.87e-03f  5
   5 -2.7166603e+01 0.00e+00 1.53e-01  -2.4 5.30e+02    -  1.85e-01 2.83e-04f  9
   6 -2.7192546e+01 0.00e+00 1.61e-01  -6.6 1.61e-01    -  9.89e-01 1.00e+00f  1
   7 -2.7216838e+01 0.00e+00 1.61e-01  -4.0 1.61e-01    -  1.00e+00 1.00e+00f  1
   8 -2.7243023e+01 0.00e+00 1.61e-01  -5.8 1.61e-01    -  1.00e+00 1.00e+00f  1
   9 -2.7269261e+01 0.00e+00 1.62e-01  -7.7 1.61e-01    -  1.00e+00 1.00e+00f  1
iter    objective    inf_pr   inf_du lg(mu)  ||d||  lg(rg) alpha_du alpha_pr  ls
  10 -2.7295661e+01 0.00e+00 1.62e-01  -9.6 1.62e-01    -  1.00e+00 1.00e+00f  1
  11 -2.7322222e+01 0.00e+00 1.63e-01 -11.0 1.62e-01    -  1.00e+00 1.00e+00f  1
  12 -2.7348986e+01 0.00e+00 1.64e-01 -11.0 1.63e-01    -  1.00e+00 1.00e+00f  1
  13 -2.7374248e+01 0.00e+00 1.64e-01 -11.0 1.64e-01    -  1.00e+00 1.00e+00f  1
  14 -3.7673984e+01 0.00e+00 2.35e+00 -11.0 1.22e+10    -  8.64e-09 3.28e-09f  1
  15 -3.7837458e+01 0.00e+00 2.74e+01 -11.0 4.11e+10    -  3.53e-09 9.76e-12f  1
  16 -3.7839240e+01 0.00e+00 3.13e+01  -8.9 5.97e+07    -  2.75e-06 6.71e-11f  1
  17 -3.8316611e+01 0.00e+00 4.69e-01  -7.9 1.26e+00    -  3.68e-06 1.00e+00f  1
  18 -3.8327597e+01 0.00e+00 4.70e-01  -7.8 2.38e-02    -  1.00e+00 1.00e+00f  1
  19 -3.8338609e+01 0.00e+00 4.70e-01  -9.7 2.38e-02    -  1.00e+00 1.00e+00f  1
iter    objective    inf_pr   inf_du lg(mu)  ||d||  lg(rg) alpha_du alpha_pr  ls
  20 -3.8349641e+01 0.00e+00 4.71e-01 -11.0 2.38e-02    -  1.00e+00 1.00e+00f  1
  21 -3.8539640e+01 0.00e+00 4.78e-01 -11.0 4.71e-01    -  1.00e+00 1.00e+00f  1
  22 -3.8734093e+01 0.00e+00 4.83e-01 -11.0 4.78e-01    -  1.00e+00 1.00e+00f  1
  23 -3.8931563e+01 0.00e+00 4.92e-01 -11.0 4.83e-01    -  1.00e+00 1.00e+00f  1
  24 -3.9163693e+01 0.00e+00 5.00e-01 -11.0 4.92e-01    -  1.00e+00 1.00e+00f  1
  25 -3.9372606e+01 0.00e+00 5.05e-01 -11.0 5.00e-01    -  1.00e+00 1.00e+00f  1
  26 -8.1009924e+01 0.00e+00 4.98e+00 -11.0 1.47e+02    -  1.00e+00 1.97e-01f  1
  27 -8.2499554e+01 0.00e+00 5.02e+00 -10.7 1.46e+03    -  1.00e+00 1.99e-04f  1
  28 -8.2514853e+01 0.00e+00 4.88e+00 -10.1 1.51e+03    -  1.00e+00 1.92e-06f  1
  29 -8.2515336e+01 0.00e+00 2.74e+00 -11.0 1.15e+00    -  1.00e+00 1.08e-03f  1
iter    objective    inf_pr   inf_du lg(mu)  ||d||  lg(rg) alpha_du alpha_pr  ls
  30 -8.2517359e+01 0.00e+00 3.81e-01 -10.0 2.34e-01    -  1.00e+00 3.41e-02f  1
  31 -8.2517377e+01 0.00e+00 3.21e+00  -6.7 6.92e-05    -  1.00e+00 1.00e+00f  1
  32 -8.2517328e+01 0.00e+00 3.88e+00  -4.3 2.11e-05    -  1.00e+00 1.00e+00f  1
  33 -8.2517314e+01 0.00e+00 2.81e-01  -4.5 1.02e-04    -  1.00e+00 1.00e+00f  1
  34 -8.2517314e+01 0.00e+00 1.31e+00  -4.5 1.63e-05    -  1.00e+00 7.81e-03f  8
  35 -8.2517314e+01 0.00e+00 3.92e+00  -4.5 7.94e-08    -  1.00e+00 1.00e+00f  1
  36 -8.2517315e+01 0.00e+00 1.38e+00  -4.5 8.82e-08    -  1.00e+00 5.00e-01f  2
  37 -8.2517315e+01 0.00e+00 1.38e+00  -4.5 1.82e-07    -  1.00e+00 4.66e-10f 32
  38 -8.2517315e+01 0.00e+00 1.38e+00  -4.5 1.80e-07    -  1.00e+00 4.66e-10f 32
  39 -8.2517315e+01 0.00e+00 3.71e+00  -4.5 1.80e-07    -  1.00e+00 2.44e-04f 13
iter    objective    inf_pr   inf_du lg(mu)  ||d||  lg(rg) alpha_du alpha_pr  ls
  40 -8.2517315e+01 0.00e+00 1.99e-03  -4.5 1.99e-03    -  1.00e+00 3.07e-14f 42
  41 -8.2517315e+01 0.00e+00 1.26e-04  -4.5 1.26e-04    -  1.00e+00 1.14e-13f 44
  42 -8.2517315e+01 0.00e+00 1.25e-04  -4.5 1.25e-04    -  1.00e+00 2.84e-14f 46
  43 -8.2517315e+01 0.00e+00 1.25e-04  -4.5 1.25e-04    -  1.00e+00 2.84e-14f 46
  44 -8.2517315e+01 0.00e+00 1.25e-04  -4.5 1.25e-04    -  1.00e+00 2.84e-14f 46
  45 -8.2517315e+01 0.00e+00 1.25e-04  -4.5 1.25e-04    -  1.00e+00 2.84e-14f 46
  46 -8.2517350e+01 0.00e+00 2.23e+00  -4.5 1.25e-04    -  1.00e+00 1.00e+00w  1
  47 -8.2517347e+01 0.00e+00 1.45e+00  -4.5 4.58e-06    -  1.00e+00 1.00e+00w  1
  48 -8.2517343e+01 0.00e+00 3.91e-01  -4.5 1.40e-05    -  1.00e+00 1.00e+00w  1
  49 -8.2517315e+01 0.00e+00 2.23e+00  -4.5 2.22e-05    -  1.00e+00 1.00e+00S 21
iter    objective    inf_pr   inf_du lg(mu)  ||d||  lg(rg) alpha_du alpha_pr  ls
  50 -8.2517347e+01 0.00e+00 6.85e-01  -4.5 7.48e-05    -  1.00e+00 1.00e+00f  1
  51 -8.2517340e+01 0.00e+00 2.53e+00  -4.5 7.47e-05    -  1.00e+00 1.00e+00f  1
  52 -8.2517325e+01 0.00e+00 3.85e-01  -4.5 7.47e-05    -  4.24e-01 1.00e+00f  1
  53 -8.4627055e+01 0.00e+00 2.22e+00  -4.5 4.14e-01    -  1.00e+00 5.00e-01f  2
  54 -8.4739407e+01 0.00e+00 2.48e+00  -4.4 1.77e-01    -  1.00e+00 2.50e-01f  3
  55 -8.4766502e+01 0.00e+00 2.50e+00  -4.5 1.92e-01    -  1.00e+00 5.25e-02f  5
  56 -8.4779410e+01 0.00e+00 2.47e+00  -4.5 1.93e-01    -  1.00e+00 2.46e-02f  6
  57 -8.4785711e+01 0.00e+00 9.93e-01  -4.4 9.79e-01    -  1.00e+00 2.34e-03f  7
  58 -8.4787265e+01 0.00e+00 2.14e-01  -3.6 2.11e-01    -  1.00e+00 2.68e-03f  9
  59 -8.4787362e+01 0.00e+00 1.49e-01  -3.4 1.49e-01    -  1.00e+00 2.36e-04f 13
iter    objective    inf_pr   inf_du lg(mu)  ||d||  lg(rg) alpha_du alpha_pr  ls
  60 -8.4787411e+01 0.00e+00 1.46e-01  -3.4 1.45e-01    -  1.00e+00 1.21e-04f 14
  61 -8.4787417e+01 0.00e+00 1.45e-01  -3.4 1.45e-01    -  1.00e+00 1.51e-05f 17
  62 -8.4787418e+01 0.00e+00 1.45e-01  -3.4 1.45e-01    -  1.00e+00 3.78e-06f 19
  63 -8.4787419e+01 0.00e+00 1.32e-01  -1.4 1.32e-01    -  1.00e+00 1.91e-06f 20
  64 -8.4787419e+01 0.00e+00 6.18e+00  -2.1 9.39e-02    -  2.02e-01 4.77e-07f 22
  65 -8.4787419e+01 0.00e+00 1.88e+02  -2.1 1.29e+00    -  3.24e-01 1.33e-08f 24
  66 -8.4787419e+01 0.00e+00 1.99e+00  -2.1 1.19e-02    -  1.00e+00 4.77e-07f 22
  67 -8.4787419e+01 0.00e+00 2.62e+00  -2.1 1.60e-02    -  1.00e+00 2.38e-07f 23
  68 -8.4787419e+01 0.00e+00 2.70e+00  -2.1 5.89e-03    -  1.00e+00 5.96e-08f 25
  69 -8.4787419e+01 0.00e+00 2.71e+00  -2.1 4.93e-03    -  1.00e+00 2.98e-08f 26
iter    objective    inf_pr   inf_du lg(mu)  ||d||  lg(rg) alpha_du alpha_pr  ls
  70 -8.4787419e+01 0.00e+00 6.78e+00  -2.1 5.79e-03    -  1.00e+00 4.77e-07f 22
  71 -8.4787419e+01 0.00e+00 3.71e+00  -2.1 3.33e-03    -  1.00e+00 1.19e-07f 24
  72 -8.4787419e+01 0.00e+00 2.71e+00  -2.1 2.99e-03    -  1.00e+00 9.54e-07f 21
  73 -8.4781476e+01 0.00e+00 2.71e+00  -2.1 3.72e-03    -  1.00e+00 1.00e+00f  1
  74 -8.4781366e+01 0.00e+00 2.71e+00  -2.1 8.66e-04    -  1.00e+00 1.25e-01f  4
  75 -8.4781367e+01 0.00e+00 2.00e+00  -2.1 2.00e+00    -  1.00e+00 1.37e-07f 20
  76 -8.4781367e+01 0.00e+00 2.70e+00  -2.1 2.75e-04    -  1.00e+00 4.88e-04f 12
  77 -8.4781367e+01 0.00e+00 2.71e+00  -2.1 2.75e-04    -  1.00e+00 2.44e-04f 13
  78 -8.4781367e+01 0.00e+00 2.71e+00  -2.1 2.75e-04    -  1.00e+00 1.22e-04f 14
  79 -8.4781367e+01 0.00e+00 2.00e+00  -2.1 2.00e+00    -  1.00e+00 8.58e-09f 24
iter    objective    inf_pr   inf_du lg(mu)  ||d||  lg(rg) alpha_du alpha_pr  ls
  80 -8.4781367e+01 0.00e+00 2.70e+00  -2.1 5.48e-05    -  1.00e+00 1.22e-04f 14
  81 -8.4781367e+01 0.00e+00 2.70e+00  -2.1 5.47e-05    -  1.00e+00 7.63e-06f 18
  82 -8.4781367e+01 0.00e+00 2.70e+00  -2.1 1.77e-04    -  1.00e+00 1.19e-07f 24
  83 -8.4781367e+01 0.00e+00 2.71e+00  -2.1 2.43e-04    -  1.00e+00 2.98e-08f 26
  84 -8.3684717e+01 0.00e+00 1.51e+00  -2.1 2.59e-04    -  1.00e+00 1.00e+00w  1
  85 -8.3683849e+01 0.00e+00 1.51e+00  -2.1 2.03e-04    -  1.00e+00 1.00e+00w  1
  86 -8.3805772e+01 0.00e+00 1.68e+00  -2.1 1.16e-01    -  1.00e+00 1.00e+00w  1
  87 -8.4781367e+01 0.00e+00 2.70e+00  -2.1 9.58e-02    -  1.00e+00 7.45e-09f 27
  88 -8.4781367e+01 0.00e+00 2.60e+00  -2.1 3.07e-01    -  1.00e+00 1.70e-12f 39
  89 -8.4780575e+01 0.00e+00 2.71e+00  -2.1 1.12e-04    -  1.00e+00 1.00e+00f  1
iter    objective    inf_pr   inf_du lg(mu)  ||d||  lg(rg) alpha_du alpha_pr  ls
  90 -8.4780636e+01 0.00e+00 2.71e+00  -2.1 8.78e-03    -  1.00e+00 6.25e-02f  5
  91 -8.4780665e+01 0.00e+00 2.71e+00  -2.1 8.74e-03    -  1.00e+00 3.12e-02f  6
  92 -8.4780675e+01 0.00e+00 2.70e+00  -2.1 2.59e-01    -  1.00e+00 1.22e-04f 14
  93 -8.4780680e+01 0.00e+00 2.69e+00  -2.1 3.83e-01    -  1.00e+00 6.10e-05f 15
  94 -8.4780681e+01 0.00e+00 2.69e+00  -2.1 2.59e-01    -  1.00e+00 1.53e-05f 17
  95 -8.4780682e+01 0.00e+00 1.88e+00  -2.1 1.88e+00    -  1.00e+00 1.46e-07f 20
  96 -8.4780682e+01 0.00e+00 5.71e-01  -2.1 4.49e-01    -  1.00e+00 7.64e-08f 23
  97 -8.4780682e+01 0.00e+00 5.66e-01  -2.1 1.43e-01    -  1.00e+00 5.96e-08f 25
  98 -8.4780682e+01 0.00e+00 5.66e-01  -2.1 1.43e-01    -  1.00e+00 2.98e-08f 26
  99 -8.4780682e+01 0.00e+00 1.35e-01  -2.1 1.35e-01    -  1.00e+00 7.45e-09f 28
iter    objective    inf_pr   inf_du lg(mu)  ||d||  lg(rg) alpha_du alpha_pr  ls
 100 -8.2510284e+01 0.00e+00 9.05e-01  -2.1 1.42e-01    -  1.00e+00 1.00e+00w  1
 101 -8.2509211e+01 0.00e+00 4.27e+00  -2.1 1.83e-03    -  1.00e+00 1.00e+00w  1
 102 -8.2506684e+01 0.00e+00 8.73e-01  -2.1 1.01e-02    -  4.05e-01 1.00e+00w  1
 103 -8.3685243e+01 0.00e+00 9.05e-01  -2.1 8.16e-03    -  1.00e+00 1.00e+00S 21
 104 -8.2510284e+01 0.00e+00 1.04e-01  -2.1 6.24e-04    -  1.00e+00 8.29e-317h1051
 105 -8.2509073e+01 0.00e+00 1.22e+00  -2.1 8.36e-04    -  1.00e+00 1.00e+00f  1
 106 -8.2508878e+01 0.00e+00 3.26e+00  -2.1 1.22e-02    -  1.00e+00 1.00e+00f  1
 107 -8.3776684e+01 0.00e+00 1.71e+00  -2.1 3.92e-02    -  1.95e-01 1.00e+00f  1
 108 -8.3802132e+01 0.00e+00 1.61e+00  -2.1 1.40e-02    -  1.00e+00 1.00e+00f  1
 109 -8.3826092e+01 0.00e+00 1.52e+00  -2.1 1.32e-02    -  1.00e+00 1.00e+00f  1
iter    objective    inf_pr   inf_du lg(mu)  ||d||  lg(rg) alpha_du alpha_pr  ls
 110 -8.3828670e+01 0.00e+00 1.25e+00  -2.1 1.12e-02    -  1.00e+00 1.25e-01f  4
 111 -8.3829658e+01 0.00e+00 4.26e-02  -2.1 4.03e-02    -  1.00e+00 1.32e-02f  6
 112 -8.3829954e+01 0.00e+00 1.94e-02  -3.2 1.66e-02    -  1.00e+00 7.81e-03f  8
 113 -8.3829972e+01 0.00e+00 1.40e-02  -3.2 1.63e-02    -  1.00e+00 4.88e-04f 12
 114 -8.3829981e+01 0.00e+00 1.55e-02  -3.2 1.62e-02    -  1.00e+00 2.44e-04f 13
 115 -8.3829991e+01 0.00e+00 1.03e+00  -3.2 6.95e-03    -  1.00e+00 4.75e-04f 12
 116 -8.3829992e+01 0.00e+00 1.37e+00  -3.2 8.81e-03    -  1.00e+00 3.05e-05f 16
 117 -8.3829992e+01 0.00e+00 1.53e+00  -3.2 9.67e-03    -  1.00e+00 1.53e-05f 17
 118 -8.3829992e+01 0.00e+00 8.98e-02  -3.2 9.12e-02    -  1.00e+00 6.88e-07f 19
 119 -8.3829993e+01 0.00e+00 4.49e+00  -3.2 2.06e-04    -  1.00e+00 2.44e-04f 13
iter    objective    inf_pr   inf_du lg(mu)  ||d||  lg(rg) alpha_du alpha_pr  ls
 120 -8.3829993e+01 0.00e+00 5.13e+00  -3.2 2.36e-04    -  1.00e+00 3.05e-05f 16
 121 -8.3836760e+01 0.00e+00 4.76e+00  -3.2 1.20e-03    -  1.00e+00 1.00e+00f  1
 122 -8.3837275e+01 0.00e+00 1.80e+00  -3.2 2.19e-04    -  1.00e+00 4.13e-01f  2
 123 -8.3837144e+01 0.00e+00 1.80e+00  -3.2 2.39e-05    -  1.00e+00 1.00e+00f  1
 124 -8.3837263e+01 0.00e+00 5.42e-01  -3.2 5.42e-01    -  1.00e+00 1.19e-04f  9
 125 -8.3837322e+01 0.00e+00 2.30e-02  -3.2 2.28e-02    -  1.00e+00 1.41e-03f 10
 126 -8.3837337e+01 0.00e+00 1.62e-02  -3.2 1.63e-02    -  1.00e+00 4.88e-04f 12
 127 -8.3837344e+01 0.00e+00 1.62e-02  -3.2 1.62e-02    -  1.00e+00 2.44e-04f 13
 128 -8.3837348e+01 0.00e+00 1.34e-02  -3.2 1.62e-02    -  1.00e+00 1.22e-04f 14
 129 -8.3837348e+01 0.00e+00 1.67e+00  -3.2 1.19e-03    -  1.00e+00 2.44e-04f 13
iter    objective    inf_pr   inf_du lg(mu)  ||d||  lg(rg) alpha_du alpha_pr  ls
 130 -8.3837348e+01 0.00e+00 1.78e+00  -3.2 1.28e-03    -  1.00e+00 3.81e-06f 19
 131 -8.3837348e+01 0.00e+00 1.77e+00  -3.2 9.03e-03    -  1.00e+00 2.38e-07f 23
 132 -8.3837348e+01 0.00e+00 1.76e+00  -3.2 8.98e-03    -  1.00e+00 5.96e-08f 25
 133 -8.3837348e+01 0.00e+00 1.80e+00  -3.2 1.26e-04    -  1.00e+00 1.91e-06f 20
 134 -8.2512451e+01 0.00e+00 1.82e+00  -3.2 1.26e-04    -  1.00e+00 1.00e+00w  1
 135 -8.2516151e+01 0.00e+00 1.18e+02  -3.2 2.38e-01    -  1.00e+00 4.84e-02w  1
 136 -8.2515232e+01 0.00e+00 3.62e+01  -3.2 3.44e-03    -  6.68e-01 1.00e+00w  1
 137 -8.3837348e+01 0.00e+00 1.80e+00  -3.2 1.21e-02    -  1.00e+00 9.54e-07f 20
 138 -8.3837348e+01 0.00e+00 1.79e+00  -3.2 2.80e-03    -  1.00e+00 1.86e-09f 30
 139 -8.3837348e+01 0.00e+00 1.79e+00  -3.2 2.79e-03    -  1.00e+00 4.66e-10f 32
iter    objective    inf_pr   inf_du lg(mu)  ||d||  lg(rg) alpha_du alpha_pr  ls
 140 -8.3837348e+01 0.00e+00 1.80e+00  -3.2 1.25e-06    -  1.00e+00 9.54e-07f 21
 141 -8.3837348e+01 0.00e+00 1.80e+00  -3.2 1.25e-06    -  1.00e+00 5.96e-08f 25
 142 -8.3837348e+01 0.00e+00 1.80e+00  -3.2 1.25e-06    -  1.00e+00 1.49e-08f 27
 143 -8.3837348e+01 0.00e+00 5.37e-01  -3.2 5.37e-01    -  1.00e+00 1.39e-14f 42
 144 -8.3837348e+01 0.00e+00 2.26e-02  -3.2 2.26e-02    -  1.00e+00 1.65e-13f 43
 145 -8.3837348e+01 0.00e+00 1.63e-02  -3.2 1.63e-02    -  1.00e+00 5.68e-14f 45
 146 -8.3837348e+01 0.00e+00 1.62e-02  -3.2 1.62e-02    -  1.00e+00 2.84e-14f 46
 147 -8.2516710e+01 0.00e+00 8.49e-01  -3.2 1.62e-02    -  1.00e+00 1.00e+00w  1
 148 -8.2516720e+01 0.00e+00 1.50e+00  -3.2 9.99e-04    -  1.00e+00 1.00e+00w  1
 149 -8.2516676e+01 0.00e+00 2.57e+00  -3.2 9.88e-04    -  1.00e+00 1.00e+00w  1
iter    objective    inf_pr   inf_du lg(mu)  ||d||  lg(rg) alpha_du alpha_pr  ls
 150 -8.2512396e+01 0.00e+00 8.49e-01  -3.2 9.76e-04    -  1.00e+00 1.00e+00S 21
 151 -8.2516674e+01 0.00e+00 6.08e-01  -3.2 8.69e-02    -  1.00e+00 1.00e+00f  1
 152 -8.2516665e+01 0.00e+00 2.53e+00  -3.2 7.74e-03    -  1.00e+00 1.00e+00f  1
 153 -8.2516695e+01 0.00e+00 5.26e+00  -3.2 2.60e-04    -  1.00e+00 1.00e+00f  1
 154 -8.2516665e+01 0.00e+00 3.46e+00  -3.2 5.52e-06    -  1.00e+00 1.00e+00f  1
 155 -8.2516406e+01 0.00e+00 1.67e+00  -3.2 6.82e-04    -  5.19e-01 1.00e+00f  1
 156 -8.3725696e+01 0.00e+00 2.82e+00  -3.2 7.52e-02    -  3.62e-02 1.00e+00f  1
 157 -8.3770720e+01 0.00e+00 1.68e+00  -3.2 3.64e-02    -  1.00e+00 5.91e-01F  1
 158 -8.3803720e+01 0.00e+00 1.74e+00  -3.2 3.86e-02    -  1.00e+00 5.00e-01f  2
 159 -8.3835157e+01 0.00e+00 1.79e+00  -3.2 3.98e-02    -  1.00e+00 4.41e-01f  2
iter    objective    inf_pr   inf_du lg(mu)  ||d||  lg(rg) alpha_du alpha_pr  ls
 160 -8.3837187e+01 0.00e+00 5.76e-01  -3.2 5.72e-01    -  1.00e+00 1.94e-03f  5
 161 -8.3837425e+01 0.00e+00 2.41e-02  -3.2 2.36e-02    -  1.00e+00 5.51e-03f  8
 162 -8.3837483e+01 0.00e+00 1.65e-02  -3.2 1.63e-02    -  1.00e+00 1.95e-03f 10
 163 -8.3837498e+01 0.00e+00 1.63e-02  -3.2 1.62e-02    -  1.00e+00 4.88e-04f 12
 164 -8.3837501e+01 0.00e+00 1.67e-02  -3.2 1.62e-02    -  1.00e+00 1.22e-04f 14
 165 -8.3837503e+01 0.00e+00 1.60e-02  -3.2 1.62e-02    -  1.00e+00 6.10e-05f 15
 166 -8.3837504e+01 0.00e+00 1.59e-02  -3.2 1.62e-02    -  1.00e+00 3.05e-05f 16
 167 -8.3837504e+01 0.00e+00 1.50e+00  -3.2 2.69e-03    -  1.00e+00 6.10e-05f 15
 168 -8.2513420e+01 0.00e+00 2.06e+00  -3.2 3.11e-03    -  1.00e+00 1.00e+00w  1
 169 -8.2513255e+01 0.00e+00 3.92e+00  -3.2 1.33e-04    -  1.00e+00 1.00e+00w  1
iter    objective    inf_pr   inf_du lg(mu)  ||d||  lg(rg) alpha_du alpha_pr  ls
 170 -8.3830960e+01 0.00e+00 1.79e+00  -3.2 6.46e-03    -  1.00e+00 1.00e+00w  1
 171 -8.3837504e+01 0.00e+00 1.73e+00  -3.2 2.03e-03    -  1.00e+00 7.63e-06f 17
 172 -8.3837504e+01 0.00e+00 1.79e+00  -3.2 2.03e-03    -  1.00e+00 3.81e-06f 19
 173 -8.3837504e+01 0.00e+00 1.79e+00  -3.2 2.04e-03    -  1.00e+00 9.54e-07f 21
 174 -8.3837504e+01 0.00e+00 4.82e-01  -3.2 4.82e-01    -  1.00e+00 1.02e-09f 26
 175 -8.3837504e+01 0.00e+00 1.79e+00  -3.2 1.33e-04    -  1.00e+00 2.38e-07f 23
 176 -8.3837504e+01 0.00e+00 1.80e+00  -3.2 1.34e-04    -  1.00e+00 1.19e-07f 24
 177 -8.3837504e+01 0.00e+00 1.80e+00  -3.2 8.03e-06    -  1.00e+00 1.19e-07f 24
 178 -8.3837504e+01 0.00e+00 1.80e+00  -3.2 7.93e-06    -  1.00e+00 1.49e-08f 27
 179 -8.3837504e+01 0.00e+00 1.80e+00  -3.2 6.36e-06    -  1.00e+00 2.98e-08f 26
iter    objective    inf_pr   inf_du lg(mu)  ||d||  lg(rg) alpha_du alpha_pr  ls
 180 -8.3837504e+01 0.00e+00 1.80e+00  -3.2 6.33e-06    -  1.00e+00 1.16e-10f 34
 181 -8.2512504e+01 0.00e+00 3.00e+00  -3.2 6.33e-06    -  1.00e+00 1.00e+00w  1
 182 -0.0000000e+00 0.00e+00 6.72e+00  -3.2 8.94e-01    -  1.84e-02 1.00e+00w  1
 183 -0.0000000e+00 0.00e+00 5.01e-02  -3.2 3.59e-04    -  9.92e-01 1.00e+00w  1
 184 -8.2512537e+01 0.00e+00 3.00e+00  -3.2 2.09e-02    -  1.00e+00 1.00e+00S 21
 185 -8.4776674e+01 0.00e+00 2.74e+00  -3.2 5.30e-01    -  3.10e-02 2.50e-01f  3
 186 -8.4782119e+01 0.00e+00 2.74e+00  -3.2 6.35e-02    -  1.00e+00 3.12e-02f  6
 187 -8.4784859e+01 0.00e+00 2.75e+00  -3.2 6.38e-02    -  1.00e+00 1.56e-02f  7
 188 -8.4786234e+01 0.00e+00 2.75e+00  -3.2 6.39e-02    -  1.00e+00 7.81e-03f  8
 189 -8.4786623e+01 0.00e+00 2.62e+00  -3.2 2.62e+00    -  1.00e+00 5.38e-05f 11
iter    objective    inf_pr   inf_du lg(mu)  ||d||  lg(rg) alpha_du alpha_pr  ls
 190 -8.4786720e+01 0.00e+00 1.43e+00  -3.2 1.43e+00    -  1.00e+00 2.46e-05f 13
 191 -8.4786744e+01 0.00e+00 2.72e-01  -3.2 2.72e-01    -  1.00e+00 3.23e-05f 15
 192 -8.4786756e+01 0.00e+00 1.52e-01  -3.2 1.52e-01    -  1.00e+00 2.89e-05f 16
 193 -8.4786759e+01 0.00e+00 1.45e-01  -3.2 1.45e-01    -  1.00e+00 7.57e-06f 18
 194 -8.4786760e+01 0.00e+00 1.44e-01  -3.2 1.45e-01    -  1.00e+00 9.48e-07f 21
 195 -8.2516569e+01 0.00e+00 4.46e+00  -3.2 1.45e-01    -  1.00e+00 9.95e-01w  1
 196 -8.2516216e+01 0.00e+00 9.85e-02  -3.2 1.00e-03    -  5.85e-01 1.00e+00w  1
 197 -8.2516204e+01 0.00e+00 2.23e+00  -3.2 1.72e-04    -  1.00e+00 1.00e+00w  1
 198 -8.3690856e+01 0.00e+00 4.46e+00  -3.2 1.12e-03    -  9.95e-01 9.95e-01S 21
 199 -8.2516569e+01 0.00e+00 1.87e+00  -3.2 5.75e-04    -  7.62e-01 5.18e-318h1055
iter    objective    inf_pr   inf_du lg(mu)  ||d||  lg(rg) alpha_du alpha_pr  ls
 200 -8.3715366e+01 0.00e+00 1.62e+00  -3.2 1.29e-01    -  1.11e-02 1.00e+00f  1
 201 -8.3745032e+01 0.00e+00 1.63e+00  -3.2 6.00e-02    -  1.00e+00 1.00e+00f  1
 202 -8.3795707e+01 0.00e+00 1.73e+00  -3.2 6.01e-02    -  1.00e+00 5.00e-01f  2
 203 -8.3830936e+01 0.00e+00 1.78e+00  -3.2 6.33e-02    -  1.00e+00 3.12e-01f  2
 204 -8.3835485e+01 0.00e+00 6.32e-01  -3.2 6.21e-01    -  1.00e+00 4.01e-03f  4
 205 -8.3836486e+01 0.00e+00 2.82e-02  -3.2 2.59e-02    -  1.00e+00 2.10e-02f  6
 206 -8.3836968e+01 0.00e+00 1.97e-02  -3.2 1.68e-02    -  1.00e+00 1.56e-02f  7
 207 -8.3837204e+01 0.00e+00 1.42e-02  -3.2 1.64e-02    -  1.00e+00 7.81e-03f  8
 208 -8.3837306e+01 0.00e+00 2.45e-01  -3.2 1.42e-02    -  1.00e+00 3.91e-03f  9
 209 -8.3837335e+01 0.00e+00 2.70e-01  -3.2 1.59e-02    -  1.00e+00 9.77e-04f 11
iter    objective    inf_pr   inf_du lg(mu)  ||d||  lg(rg) alpha_du alpha_pr  ls
 210 -8.3837335e+01 0.00e+00 1.17e+00  -3.2 6.67e-03    -  1.00e+00 6.10e-05f 15
 211 -8.3837336e+01 0.00e+00 1.46e+00  -3.2 8.35e-03    -  1.00e+00 1.53e-05f 17
 212 -8.2514934e+01 0.00e+00 6.25e+00  -3.2 9.10e-03    -  1.00e+00 1.00e+00w  1
 213 -8.4675189e+01 0.00e+00 2.52e+00  -3.2 1.80e-01    -  4.01e-02 1.00e+00f  1
 214 -8.4744300e+01 0.00e+00 2.66e+00  -3.2 5.32e-02    -  1.00e+00 5.00e-01f  2
 215 -8.4782372e+01 0.00e+00 2.74e+00  -3.2 5.62e-02    -  1.00e+00 2.50e-01f  3
 216 -8.4784860e+01 0.00e+00 2.75e+00  -3.2 5.79e-02    -  1.00e+00 1.56e-02f  7
 217 -8.4786420e+01 0.00e+00 2.64e+00  -3.2 2.63e+00    -  1.00e+00 2.15e-04f  9
 218 -8.4786614e+01 0.00e+00 1.50e+00  -3.2 1.50e+00    -  1.00e+00 4.71e-05f 12
 219 -8.4786662e+01 0.00e+00 2.85e-01  -3.2 2.85e-01    -  1.00e+00 6.18e-05f 14
iter    objective    inf_pr   inf_du lg(mu)  ||d||  lg(rg) alpha_du alpha_pr  ls
 220 -8.4786687e+01 0.00e+00 1.58e-01  -3.2 1.53e-01    -  1.00e+00 5.76e-05f 15
 221 -8.4786699e+01 0.00e+00 1.38e-01  -3.2 1.46e-01    -  1.00e+00 3.02e-05f 16
 222 -8.4786708e+01 0.00e+00 2.72e+00  -3.2 1.61e-03    -  1.00e+00 1.95e-03f 10
 223 -8.4786708e+01 0.00e+00 2.75e+00  -3.2 1.63e-03    -  1.00e+00 6.10e-05f 15
 224 -8.2510939e+01 0.00e+00 5.80e+00  -3.2 8.55e-01    -  1.92e-02 1.69e-01w  1
 225 -8.2511608e+01 0.00e+00 4.55e+00  -3.2 2.44e-02    -  1.00e+00 4.42e-02w  1
 226 -8.2517204e+01 0.00e+00 3.58e+00  -3.2 1.83e-03    -  8.68e-01 5.93e-01w  1
 227 -8.3690809e+01 0.00e+00 5.73e+00  -3.2 4.04e-04    -  1.92e-02 1.92e-02S 19
 228 -8.3752263e+01 0.00e+00 3.17e+00  -3.2 6.50e-01    -  1.00e+00 9.85e-02f  2
 229 -8.3807382e+01 0.00e+00 2.81e+00  -3.2 5.56e-01    -  1.00e+00 5.79e-02f  2
iter    objective    inf_pr   inf_du lg(mu)  ||d||  lg(rg) alpha_du alpha_pr  ls
 230 -8.3821950e+01 0.00e+00 8.56e-01  -3.2 1.57e-01    -  1.00e+00 5.16e-02f  3
 231 -8.3833221e+01 0.00e+00 5.65e-02  -3.2 3.10e-02    -  1.00e+00 1.97e-01f  3
 232 -8.3835361e+01 0.00e+00 2.34e-02  -3.2 1.85e-02    -  1.00e+00 6.19e-02f  5
 233 -8.3836357e+01 0.00e+00 1.93e-02  -3.2 1.70e-02    -  1.00e+00 3.12e-02f  6
 234 -8.3836598e+01 0.00e+00 1.91e-02  -3.2 1.65e-02    -  1.00e+00 7.81e-03f  8
 235 -8.3836717e+01 0.00e+00 1.45e-02  -3.2 1.64e-02    -  1.00e+00 3.91e-03f  9
 236 -8.3836765e+01 0.00e+00 3.69e-01  -3.2 1.30e-02    -  1.00e+00 1.95e-03f 10
 237 -8.3836793e+01 0.00e+00 4.37e-01  -3.2 1.54e-02    -  1.00e+00 9.77e-04f 11
 238 -8.2516617e+01 0.00e+00 3.32e+00  -3.2 1.59e-02    -  1.00e+00 1.00e+00w  1
 239 -8.2516772e+01 0.00e+00 4.46e+00  -3.2 1.67e-03    -  1.00e+00 3.74e-01w  1
iter    objective    inf_pr   inf_du lg(mu)  ||d||  lg(rg) alpha_du alpha_pr  ls
 240 -8.2516656e+01 0.00e+00 3.19e+00  -3.2 1.36e-04    -  1.00e+00 1.00e+00w  1
 241 -8.3836801e+01 0.00e+00 4.50e-01  -3.2 1.83e-05    -  1.00e+00 2.44e-04f 12
 242 -8.3836820e+01 0.00e+00 1.80e+00  -3.2 4.90e-05    -  1.00e+00 6.25e-02f  5
 243 -8.3836823e+01 0.00e+00 1.84e+00  -3.2 4.79e-05    -  1.00e+00 7.81e-03f  8
 244 -8.3836823e+01 0.00e+00 5.36e-01  -3.2 5.36e-01    -  1.00e+00 1.17e-07f 19
 245 -8.3836823e+01 0.00e+00 2.18e-02  -3.2 2.26e-02    -  1.00e+00 6.94e-07f 21
 246 -8.3836823e+01 0.00e+00 1.80e+00  -3.2 3.47e-05    -  1.00e+00 6.10e-05f 15
 247 -8.3836823e+01 0.00e+00 1.95e+00  -3.2 3.78e-05    -  1.00e+00 3.05e-05f 16
 248 -8.3836823e+01 0.00e+00 1.80e+00  -3.2 4.79e-05    -  1.00e+00 3.05e-05f 16
 249 -8.3836823e+01 0.00e+00 1.80e+00  -3.2 4.73e-05    -  1.00e+00 1.53e-05f 17
iter    objective    inf_pr   inf_du lg(mu)  ||d||  lg(rg) alpha_du alpha_pr  ls
 250 -8.3837289e+01 0.00e+00 1.80e+00  -3.2 8.08e-05    -  1.00e+00 1.00e+00f  1
 251 -8.3837385e+01 0.00e+00 1.80e+00  -3.2 1.64e-05    -  1.00e+00 1.00e+00f  1
 252 -8.3837389e+01 0.00e+00 1.80e+00  -3.2 5.50e-04    -  1.00e+00 3.91e-03f  9
 253 -8.3837390e+01 0.00e+00 1.79e+00  -3.2 5.58e-03    -  1.00e+00 3.05e-05f 16
 254 -8.3837390e+01 0.00e+00 1.78e+00  -3.2 5.57e-03    -  1.00e+00 1.53e-05f 17
 255 -8.3837390e+01 0.00e+00 1.80e+00  -3.2 7.47e-05    -  1.00e+00 4.88e-04f 12
 256 -8.3837390e+01 0.00e+00 1.80e+00  -3.2 7.49e-05    -  1.00e+00 1.22e-04f 14
 257 -8.3837390e+01 0.00e+00 1.80e+00  -3.2 7.49e-05    -  1.00e+00 3.05e-05f 16
 258 -8.3837390e+01 0.00e+00 5.35e-01  -3.2 5.35e-01    -  1.00e+00 4.58e-10f 27
 259 -8.3837390e+01 0.00e+00 9.82e-02  -3.2 2.29e-02    -  1.00e+00 5.35e-09f 28
iter    objective    inf_pr   inf_du lg(mu)  ||d||  lg(rg) alpha_du alpha_pr  ls
 260 -8.3837390e+01 0.00e+00 9.82e-02  -3.2 1.62e-02    -  1.00e+00 3.73e-09f 29
 261 -8.3837390e+01 0.00e+00 9.81e-02  -3.2 1.62e-02    -  1.00e+00 1.86e-09f 30
 262 -8.2516676e+01 0.00e+00 4.92e+00  -3.2 1.61e-02    -  1.00e+00 1.00e+00w  1
 263 -8.2516362e+01 0.00e+00 1.09e+00  -3.2 1.11e-03    -  3.95e-01 1.00e+00w  1
 264 -8.2516086e+01 0.00e+00 9.40e-01  -3.2 8.08e-04    -  1.00e+00 1.00e+00w  1
 265 -8.2512434e+01 0.00e+00 4.92e+00  -3.2 7.79e-05    -  1.00e+00 1.00e+00S 21
 266 -8.2516443e+01 0.00e+00 2.31e+00  -3.2 8.19e-04    -  5.13e-01 1.00e+00f  1
 267 -8.2516443e+01 0.00e+00 1.83e+00  -3.2 2.76e-04    -  1.00e+00 1.14e-13f 44
 268 -8.2516443e+01 0.00e+00 1.73e+00  -3.2 2.62e-04    -  1.00e+00 1.42e-14f 47
 269 -8.2516443e+01 0.00e+00 8.31e-01  -3.2 2.59e-04    -  1.00e+00 7.45e-09f 28
iter    objective    inf_pr   inf_du lg(mu)  ||d||  lg(rg) alpha_du alpha_pr  ls
 270 -8.2516443e+01 0.00e+00 1.25e-03  -3.2 1.25e-03    -  1.00e+00 5.68e-14f 45
 271 -8.2517363e+01 0.00e+00 2.72e+00  -4.8 1.30e-03    -  1.00e+00 1.00e+00f  1
 272 -8.2517351e+01 0.00e+00 3.56e+00  -4.8 3.81e-05    -  4.04e-01 1.00e+00f  1
 273 -8.2517344e+01 0.00e+00 1.55e+00  -4.8 1.90e-03    -  1.00e+00 1.56e-02f  7
 274 -8.2517345e+01 0.00e+00 7.46e-01  -4.8 8.87e-06    -  1.00e+00 1.00e+00f  1
 275 -8.2517348e+01 0.00e+00 3.70e+00  -4.8 8.05e-06    -  1.00e+00 5.00e-01f  2
 276 -8.2517348e+01 0.00e+00 3.67e+00  -4.8 3.80e-05    -  1.00e+00 3.12e-02f  6
 277 -8.2517348e+01 0.00e+00 2.21e+00  -4.8 3.78e-05    -  1.00e+00 2.38e-07f 23
 278 -8.2517348e+01 0.00e+00 3.81e-04  -4.8 3.81e-04    -  1.00e+00 8.25e-14f 42
 279 -8.2517349e+01 0.00e+00 1.54e+00  -4.8 6.29e-05    -  1.00e+00 3.12e-02f  6
iter    objective    inf_pr   inf_du lg(mu)  ||d||  lg(rg) alpha_du alpha_pr  ls
 280 -8.2517348e+01 0.00e+00 1.37e+00  -4.8 1.11e-06    -  1.00e+00 1.00e+00f  1
 281 -8.2517348e+01 0.00e+00 4.32e+00  -4.8 1.85e-06    -  1.00e+00 7.81e-03f  8
 282 -8.2517348e+01 0.00e+00 4.40e+00  -4.8 5.62e-06    -  1.00e+00 7.63e-06f 18
 283 -8.2517348e+01 0.00e+00 1.67e+00  -4.8 1.08e-03    -  1.00e+00 7.45e-06f 14
 284 -8.2517348e+01 0.00e+00 4.99e+00  -4.8 1.34e-08    -  1.00e+00 3.05e-05f 16
 285 -8.2517348e+01 0.00e+00 4.51e+00  -4.8 2.42e-08    -  1.00e+00 4.88e-04f 12
 286 -8.2517348e+01 0.00e+00 4.51e+00  -4.8 2.17e-07    -  1.00e+00 5.82e-11f 35
 287 -8.2517348e+01 0.00e+00 4.51e+00  -4.8 2.17e-07    -  1.00e+00 2.91e-11f 36
 288 -8.2517348e+01 0.00e+00 4.51e+00  -4.8 2.17e-07    -  1.00e+00 2.91e-11f 36
 289 -8.2517348e+01 0.00e+00 1.20e-03  -4.8 1.20e-03    -  1.00e+00 3.14e-15f 45
iter    objective    inf_pr   inf_du lg(mu)  ||d||  lg(rg) alpha_du alpha_pr  ls
 290 -8.2517348e+01 0.00e+00 6.26e-05  -4.8 6.26e-05    -  1.00e+00 5.68e-14f 45
 291 -8.2517366e+01 0.00e+00 5.74e+00  -4.8 6.26e-05    -  1.00e+00 1.00e+00w  1
 292 -8.2517362e+01 0.00e+00 2.57e+00  -4.8 4.15e-06    -  8.29e-01 1.00e+00w  1
 293 -8.2517363e+01 0.00e+00 3.36e+00  -4.8 4.51e-07    -  1.00e+00 1.00e+00w  1
 294 -8.2517348e+01 0.00e+00 5.74e+00  -4.8 3.82e-07    -  1.00e+00 1.00e+00S 21
 295 -8.2517363e+01 0.00e+00 2.19e+00  -4.8 5.99e-07    -  1.00e+00 1.00e+00f  1
 296 -8.2517362e+01 0.00e+00 1.69e+00  -4.8 4.13e-07    -  1.00e+00 1.00e+00f  1
 297 -8.2517362e+01 0.00e+00 4.06e+00  -4.8 1.29e-06    -  1.00e+00 1.00e+00f  1
 298 -8.2517361e+01 0.00e+00 5.10e-01  -4.8 4.41e-06    -  1.00e+00 1.00e+00f  1
 299 -8.2517360e+01 0.00e+00 1.65e+00  -4.8 3.70e-07    -  1.00e+00 1.00e+00f  1
iter    objective    inf_pr   inf_du lg(mu)  ||d||  lg(rg) alpha_du alpha_pr  ls
 300 -8.2517360e+01 0.00e+00 8.35e-01  -4.8 3.20e-07    -  1.00e+00 3.91e-03f  9
 301 -8.2517360e+01 0.00e+00 7.12e-01  -4.8 2.95e-07    -  1.00e+00 4.88e-04f 12
 302 -8.2517360e+01 0.00e+00 8.55e-01  -4.8 3.60e-07    -  1.00e+00 3.05e-05f 16
 303 -8.2517360e+01 0.00e+00 4.15e+00  -4.8 8.66e-10    -  1.00e+00 4.77e-07f 22
 304 -8.2517360e+01 0.00e+00 4.15e+00  -4.8 4.82e-10    -  1.00e+00 2.38e-07f 23
 305 -8.2517360e+01 0.00e+00 4.15e+00  -4.8 4.82e-10    -  1.00e+00 5.96e-08f 25
 306 -8.2517360e+01 0.00e+00 2.80e-05  -4.8 2.80e-05    -  1.00e+00 1.71e-13f 42
 307 -8.2517380e+01 0.00e+00 1.94e+00  -7.2 1.05e-05    -  1.00e+00 1.00e+00f  1
 308 -8.2517380e+01 0.00e+00 3.05e+00  -7.2 3.97e-09    -  1.00e+00 1.56e-02f  7
 309 -8.2517380e+01 0.00e+00 2.52e+00  -7.2 1.54e-08    -  1.00e+00 1.00e+00f  1
iter    objective    inf_pr   inf_du lg(mu)  ||d||  lg(rg) alpha_du alpha_pr  ls
 310 -8.2517380e+01 0.00e+00 6.63e-01  -7.2 3.71e-09    -  1.00e+00 3.05e-05f 16
 311 -8.2517380e+01 0.00e+00 1.33e+00  -7.2 1.65e-09    -  1.00e+00 1.00e+00f  1
 312 -8.2517380e+01 0.00e+00 1.20e+00  -7.2 1.36e-09    -  1.00e+00 3.73e-09f 29
 313 -8.2517380e+01 0.00e+00 1.20e+00  -7.2 1.38e-09    -  1.00e+00 3.73e-09f 29
 314 -8.2517380e+01 0.00e+00 1.20e+00  -7.2 1.38e-09    -  1.00e+00 3.73e-09f 29
 315 -8.2517380e+01 0.00e+00 9.42e-01  -7.2 1.37e-08    -  1.00e+00 1.00e+00f  1
 316 -8.2517380e+01 0.00e+00 3.89e-01  -7.2 4.73e-09    -  1.00e+00 7.45e-09f 28
 317 -8.2517380e+01 0.00e+00 3.53e-01  -7.2 4.09e-09    -  1.00e+00 9.31e-10f 31
 318 -8.2517380e+01 0.00e+00 2.13e+00  -7.2 4.06e-09    -  1.00e+00 1.53e-05f 17
 319 -8.2517380e+01 0.00e+00 4.79e-08  -7.2 4.79e-08    -  1.00e+00 1.52e-09f 30
iter    objective    inf_pr   inf_du lg(mu)  ||d||  lg(rg) alpha_du alpha_pr  ls
 320 -8.2517380e+01 0.00e+00 3.88e-08  -9.0 3.88e-08    -  1.00e+00 4.66e-10f 32
 321 -8.2517380e+01 0.00e+00 3.88e-08  -9.0 3.88e-08    -  1.00e+00 4.66e-10f 32
 322 -8.2517380e+01 0.00e+00 3.88e-08  -9.0 3.88e-08    -  1.00e+00 1.16e-10f 34
 323 -8.2517380e+01 0.00e+00 3.88e-08  -9.0 3.88e-08    -  1.00e+00 1.16e-10f 34
 324 -8.2517380e+01 0.00e+00 3.88e-08  -9.0 3.88e-08    -  1.00e+00 1.16e-10f 34
 325 -8.2517380e+01 0.00e+00 3.88e-08  -9.0 3.88e-08    -  1.00e+00 1.16e-10f 34
 326 -8.2517380e+01 0.00e+00 3.88e-08  -9.0 3.88e-08    -  1.00e+00 1.16e-10f 34
 327 -8.2517380e+01 0.00e+00 3.88e-08  -9.0 3.88e-08    -  1.00e+00 1.16e-10f 34
 328 -8.2517380e+01 0.00e+00 3.88e-08  -9.0 3.88e-08    -  1.00e+00 1.16e-10f 34
 329 -8.2517380e+01 0.00e+00 3.88e-08  -9.0 3.88e-08    -  1.00e+00 1.16e-10f 34
iter    objective    inf_pr   inf_du lg(mu)  ||d||  lg(rg) alpha_du alpha_pr  ls
 330 -8.2517380e+01 0.00e+00 2.27e+00  -9.0 3.88e-08    -  1.00e+00 1.00e+00w  1
 331 -8.2517380e+01 0.00e+00 4.61e+00  -9.0 1.28e-10    -  1.00e+00 1.00e+00f  1
 332 -8.2517380e+01 0.00e+00 9.05e-01  -9.0 1.10e-09    -  3.80e-01 5.00e-01f  2
 333 -8.2517380e+01 0.00e+00 4.93e-01  -9.0 1.83e-11    -  1.00e+00 1.25e-01f  4
 334 -8.2517380e+01 0.00e+00 2.15e+00  -9.0 6.42e-11    -  1.00e+00 2.50e-01f  3
 335 -8.2517380e+01 0.00e+00 4.51e-01  -9.0 1.25e-11    -  1.00e+00 6.25e-02f  5
 336 -8.2517380e+01 0.00e+00 3.72e+00  -9.0 2.28e-11    -  1.00e+00 5.00e-01f  2
 337 -8.2517380e+01 0.00e+00 3.71e+00  -9.0 3.10e-11    -  1.00e+00 3.81e-06f 19
 338 -8.2517380e+01 0.00e+00 3.71e+00  -9.0 2.74e-11    -  1.00e+00 9.54e-07f 21
 339 -8.2517380e+01 0.00e+00 3.42e-09  -9.0 3.42e-09    -  1.00e+00 2.00e-09f 28

Number of Iterations....: 339

                                   (scaled)                 (unscaled)
Objective...............:  -8.2517380022643621e+01   -8.2517380022643621e+01
Dual infeasibility......:   3.4214212716989773e-09    3.4214212716989773e-09
Constraint violation....:   0.0000000000000000e+00    0.0000000000000000e+00
Variable bound violation:   4.9840605420570228e-08    4.9840605420570228e-08
Complementarity.........:   4.3216313795288644e-09    4.3216313795288644e-09
Overall NLP error.......:   4.3216313795288644e-09    4.3216313795288644e-09


Number of objective function evaluations             = 7336
Number of objective gradient evaluations             = 340
Number of equality constraint evaluations            = 0
Number of inequality constraint evaluations          = 7336
Number of equality constraint Jacobian evaluations   = 0
Number of inequality constraint Jacobian evaluations = 340
Number of Lagrangian Hessian evaluations             = 0
Total seconds in IPOPT                               = 35.402

EXIT: Optimal Solution Found.
